[VALIDATOR STDOUT]
Checking plan: /home/jfan5/Safety-gen/runs/benchmark/optic/grippers_20260205_114054/grippers/optic_results/grippers-n3-r26-o24-s24001.plan
Plan executed successfully - checking goal
Plan valid
Final value: 90 

Successful plans:
Value: 90
 /home/jfan5/Safety-gen/runs/benchmark/optic/grippers_20260205_114054/grippers/optic_results/grippers-n3-r26-o24-s24001.plan 90
